c SAT Generator for power-law distributed variable frequencies
c -g u -v 20 -c 91 -k 3 -p 2.750000 -b 3.200000 -f /home/schmidt/Devel/ni-kop-sat/data/ensemble/ruf20-91/ruf20-91-714 -u 1 -U 1 -s 3507941764
p cnf 20 91
5 9 16 0
-8 11 -12 0
-2 -7 13 0
-3 7 18 0
12 13 -15 0
-2 -5 13 0
2 10 -18 0
8 13 15 0
10 12 15 0
8 -15 -17 0
1 -5 9 0
2 9 12 0
-6 15 -16 0
5 8 19 0
2 -4 7 0
1 -6 -15 0
-9 -16 -19 0
4 -5 -17 0
5 7 -10 0
-1 -12 -17 0
4 7 17 0
-11 -19 -20 0
3 -19 -20 0
9 -12 13 0
2 4 19 0
-4 -5 -16 0
7 14 -18 0
-8 11 -14 0
-2 -10 -12 0
-7 -12 13 0
5 12 -14 0
3 15 -17 0
7 -16 -20 0
9 16 -17 0
2 -3 20 0
-4 5 11 0
1 -4 8 0
-8 19 -20 0
2 15 18 0
-4 9 19 0
-3 -16 18 0
-1 -7 -10 0
-10 12 -14 0
8 11 12 0
-7 -8 15 0
3 -17 -18 0
1 6 -14 0
8 -18 -20 0
15 18 20 0
8 -12 -19 0
-6 7 -11 0
-2 -6 -20 0
-3 14 15 0
2 5 9 0
-8 -10 -11 0
6 -11 14 0
1 3 -20 0
8 -12 19 0
-7 -17 18 0
-15 16 -19 0
11 17 -20 0
15 17 20 0
3 -11 -18 0
2 -4 -18 0
7 -13 15 0
12 18 -19 0
2 -5 16 0
-2 10 -14 0
-3 7 17 0
-10 14 -17 0
6 7 -14 0
9 13 -17 0
3 5 15 0
-6 8 -15 0
-5 19 20 0
1 2 17 0
7 12 18 0
13 -18 19 0
-7 -10 16 0
4 6 -15 0
-1 12 13 0
-3 9 -14 0
-4 -7 8 0
-1 8 16 0
-2 -12 -18 0
-4 14 -20 0
-1 5 -7 0
-11 14 17 0
1 4 8 0
6 10 19 0
4 15 19 0
